%
% Generated Sudoku 16x16
% Density approximation: 0.80
%
x = array2d(1..n, 1..n, [
   2,  15,  10,   8,  11,   1,  13,  16,   4,   _,   _,   _,  12,   5,   6,   3,
  11,   1,   4,   _,   5,   9,   _,   8,  16,  12,   3,   _,   _,   _,   2,   _,
  12,   _,   7,   3,   6,   4,   _,  10,   1,  13,   _,   5,  11,  16,  14,   8,
   5,   _,   6,  13,  14,  12,   2,   _,  11,  10,  15,   8,   _,   7,   1,   9,
   1,   2,  14,   7,  16,  11,   3,  15,   _,   5,   4,  12,   _,   6,   9,  10,
  13,   4,   9,   6,   2,   7,   1,   _,   8,  15,  10,  16,   3,  12,  11,   5,
  15,   _,  16,  12,   9,  10,   8,   5,   _,  14,  11,   _,  13,   1,   7,   4,
   8,  11,   5,   _,   4,   6,   _,  13,   7,   3,   9,   1,  14,   _,  16,   2,
   6,   _,   _,   4,  15,   5,   _,   9,  12,   _,  13,   7,   1,   3,   8,  11,
   _,  10,  12,  15,   7,  14,   6,  11,   9,   8,   1,   3,   5,   _,   4,  13,
   3,   5,   _,  11,   _,  13,   _,  12,   _,   4,  14,  10,   _,   9,  15,   _,
   7,   8,  13,   9,   3,   2,   4,   1,   5,  11,   6,  15,  16,   _,  12,  14,
   _,  13,   3,   1,  12,   8,   9,   6,  10,   2,   _,   4,   _,  11,   5,   7,
   4,   7,   _,   5,  13,  16,  14,   2,   3,   _,  12,  11,   9,   8,   _,   _,
   9,   6,   _,  16,   _,  15,  11,   7,  14,   _,   5,  13,   2,   _,   3,   _,
  10,  12,  11,   2,   1,   3,   5,   _,  15,   7,   8,   9,   6,  14,  13,   _
]);

n = 16;
